utils/lkh_output2.tour
NAME : tsp_file.tsp.475.tour
COMMENT : Length = 475
COMMENT : Found by LKH-3 [Keld Helsgaun] Wed Jun 14 10:44:28 2023
TYPE : TOUR
DIMENSION : 30
TOUR_SECTION
1
21
6
13
25
17
8
27
22
12
20
14
2
23
18
15
30
11
7
19
10
26
28
3
5
16
29
9
4
24
-1
EOF
